NAME : CasoMejor
COMMENT : Drilling problem (Reinelt)
TYPE : TSP
DIMENSION : 502
EDGE_WEIGHT_TYPE : EUC_2D
NODE_COORD_SECTION
1 0.0000 0.00000
2 1.0000 0.00001
3 2.0000 0.00002
4 80.75100 9.83700
5 50.87800 1.04090
6 90.75100 1.13610
7 100.87800 1.27580
8 800.87800 1.49810
9 900.64000 1.50440
10 40.11640 1.21230
11 30.01480 1.14880
12 20.05290 1.13610
EOF
